Running HiGHS 1.4.0 [date: 1970-01-01, git hash: bcf6c0b22]
Copyright (c) 2022 ERGO-Code under MIT licence terms
LP   3H82LBG_model has 1987 rows; 1476 cols; 5773 nonzeros
Presolving model
1022 rows, 473 cols, 2945 nonzeros
685 rows, 278 cols, 2088 nonzeros
389 rows, 239 cols, 1157 nonzeros
319 rows, 196 cols, 1060 nonzeros
295 rows, 174 cols, 946 nonzeros
Presolve : Reductions: rows 295(-1692); columns 174(-1302); elements 946(-4827)
Solving the presolved LP
Using EKK dual simplex solver - serial
  Iteration        Objective     Infeasibilities num(sum)
          0    -6.6779342556e+04 Ph1: 282(274582); Du: 39(845.343) 0s
        193     3.5329048155e+06 Pr: 0(0) 0s
Solving the original LP from the solution after postsolve
Model   status      : Optimal
Simplex   iterations: 193
Objective value     : -3.5329048155e+06
HiGHS run time      :          0.01
